; Options: -q --produce-models --incremental --print-success --lang smt2.6 --arrays-exp
(set-logic ALL)

(declare-fun start!2467 () Bool)

(assert start!2467)

(declare-fun lt!6510 () (_ FloatingPoint 11 53))

(declare-fun b!12964 () Bool)

(declare-fun jz!59 () (_ BitVec 32))

(declare-datatypes ((array!902 0))(
  ( (array!903 (arr!391 (Array (_ BitVec 32) (_ BitVec 32))) (size!391 (_ BitVec 32))) )
))
(declare-fun lt!6508 () array!902)

(declare-datatypes ((Unit!1395 0))(
  ( (Unit!1396) )
))
(declare-datatypes ((tuple4!264 0))(
  ( (tuple4!265 (_1!311 Unit!1395) (_2!311 array!902) (_3!243 (_ BitVec 32)) (_4!132 (_ FloatingPoint 11 53))) )
))
(declare-fun e!7123 () tuple4!264)

(declare-fun Unit!1397 () Unit!1395)

(assert (=> b!12964 (= e!7123 (tuple4!265 Unit!1397 lt!6508 jz!59 lt!6510))))

(declare-fun b!12965 () Bool)

(declare-fun res!10265 () Bool)

(declare-fun e!7127 () Bool)

(assert (=> b!12965 (=> (not res!10265) (not e!7127))))

(declare-datatypes ((array!904 0))(
  ( (array!905 (arr!392 (Array (_ BitVec 32) (_ FloatingPoint 11 53))) (size!392 (_ BitVec 32))) )
))
(declare-fun q!93 () array!904)

(declare-fun qInv!0 (array!904) Bool)

(assert (=> b!12965 (= res!10265 (qInv!0 q!93))))

(declare-fun b!12966 () Bool)

(declare-fun res!10264 () Bool)

(declare-fun e!7125 () Bool)

(assert (=> b!12966 (=> (not res!10264) (not e!7125))))

(declare-fun iq!194 () array!902)

(declare-fun iqInv!0 (array!902) Bool)

(assert (=> b!12966 (= res!10264 (iqInv!0 iq!194))))

(declare-fun lt!6509 () (_ BitVec 32))

(declare-fun lt!6507 () tuple4!264)

(declare-fun lt!6503 () (_ BitVec 32))

(declare-datatypes ((tuple4!266 0))(
  ( (tuple4!267 (_1!312 Unit!1395) (_2!312 (_ BitVec 32)) (_3!244 array!902) (_4!133 (_ BitVec 32))) )
))
(declare-fun e!7120 () tuple4!266)

(declare-fun b!12968 () Bool)

(declare-fun Unit!1398 () Unit!1395)

(assert (=> b!12968 (= e!7120 (tuple4!267 Unit!1398 lt!6509 (_2!311 lt!6507) lt!6503))))

(declare-fun i!271 () (_ BitVec 32))

(declare-fun b!12969 () Bool)

(assert (=> b!12969 (= e!7125 (and (bvslt i!271 jz!59) (let ((ix!205 (bvsub (bvsub jz!59 #b00000000000000000000000000000001) i!271))) (or (bvslt ix!205 #b00000000000000000000000000000000) (bvsge ix!205 (size!391 iq!194))))))))

(declare-fun b!12970 () Bool)

(declare-fun e!7126 () Bool)

(assert (=> b!12970 (= e!7127 e!7126)))

(declare-fun res!10262 () Bool)

(assert (=> b!12970 (=> (not res!10262) (not e!7126))))

(declare-fun lt!6505 () (_ FloatingPoint 11 53))

(assert (=> b!12970 (= res!10262 (and (fp.leq (fp #b0 #b00000000000 #b0000000000000000000000000000000000000000000000000000) lt!6505) (fp.lt lt!6505 (fp #b0 #b10000000010 #b0000000000000000000000000000000000000000000000000000))))))

(assert (=> b!12970 (= lt!6505 (fp.sub roundNearestTiesToEven (_4!132 lt!6507) (fp.mul roundNearestTiesToEven (fp #b0 #b10000000010 #b0000000000000000000000000000000000000000000000000000) ((_ to_fp 11 53) roundNearestTiesToEven (ite (fp.isNaN (fp.mul roundNearestTiesToEven (_4!132 lt!6507) (fp #b0 #b01111111100 #b0000000000000000000000000000000000000000000000000000))) #b0000000000000000000000000000000000000000000000000000000000000000 (ite (fp.gt (fp.mul roundNearestTiesToEven (_4!132 lt!6507) (fp #b0 #b01111111100 #b0000000000000000000000000000000000000000000000000000)) ((_ to_fp 11 53) roundTowardZero #b0111111111111111111111111111111111111111111111111111111111111111)) #b0111111111111111111111111111111111111111111111111111111111111111 (ite (fp.lt (fp.mul roundNearestTiesToEven (_4!132 lt!6507) (fp #b0 #b01111111100 #b0000000000000000000000000000000000000000000000000000)) ((_ to_fp 11 53) roundTowardZero #b1000000000000000000000000000000000000000000000000000000000000000)) #b1000000000000000000000000000000000000000000000000000000000000000 ((_ fp.to_sbv 64) roundTowardZero (fp.mul roundNearestTiesToEven (_4!132 lt!6507) (fp #b0 #b01111111100 #b0000000000000000000000000000000000000000000000000000))))))))))))

(assert (=> b!12970 (= lt!6507 e!7123)))

(declare-fun c!1564 () Bool)

(assert (=> b!12970 (= c!1564 (bvsgt jz!59 #b00000000000000000000000000000000))))

(assert (=> b!12970 (= lt!6510 (select (arr!392 q!93) jz!59))))

(assert (=> b!12970 (= lt!6508 (array!903 ((as const (Array (_ BitVec 32) (_ BitVec 32))) #b00000000000000000000000000000000) #b00000000000000000000000000010100))))

(declare-fun b!12971 () Bool)

(declare-fun res!10261 () Bool)

(assert (=> b!12971 (=> (not res!10261) (not e!7125))))

(declare-fun qq!48 () array!904)

(assert (=> b!12971 (= res!10261 (and (bvsle (select (arr!391 iq!194) (bvsub jz!59 #b00000000000000000000000000000001)) #b00000000011111111111111111111111) (= (size!392 qq!48) #b00000000000000000000000000010100)))))

(declare-fun b!12972 () Bool)

(declare-fun computeModuloWhile!3 ((_ BitVec 32) array!904 (_ BitVec 32) array!902 (_ BitVec 32)) tuple4!266)

(assert (=> b!12972 (= e!7120 (computeModuloWhile!3 jz!59 q!93 lt!6509 (_2!311 lt!6507) lt!6503))))

(declare-fun b!12973 () Bool)

(assert (=> b!12973 (= e!7126 e!7125)))

(declare-fun res!10263 () Bool)

(assert (=> b!12973 (=> (not res!10263) (not e!7125))))

(declare-fun lt!6506 () Bool)

(declare-datatypes ((tuple3!222 0))(
  ( (tuple3!223 (_1!313 Unit!1395) (_2!313 array!902) (_3!245 (_ BitVec 32))) )
))
(declare-fun lt!6512 () tuple3!222)

(assert (=> b!12973 (= res!10263 (and (bvsle #b00000000000000000000000000000000 (select (arr!391 (_2!313 lt!6512)) (bvsub jz!59 #b00000000000000000000000000000001))) (bvsle (select (arr!391 (_2!313 lt!6512)) (bvsub jz!59 #b00000000000000000000000000000001)) #b00000000100000000000000000000000) (or (not lt!6506) (not (= (_3!245 lt!6512) #b00000000000000000000000000000000)) (not (= (select (arr!391 (_2!313 lt!6512)) (bvsub jz!59 #b00000000000000000000000000000001)) #b00000000100000000000000000000000))) (bvsle (select (arr!391 (_2!313 lt!6512)) (bvsub jz!59 #b00000000000000000000000000000001)) #b00000000011111111111111111111111) (bvsle #b00000000000000000000000000000000 i!271) (bvsle i!271 jz!59)))))

(declare-fun e!7121 () tuple3!222)

(assert (=> b!12973 (= lt!6512 e!7121)))

(declare-fun c!1563 () Bool)

(assert (=> b!12973 (= c!1563 lt!6506)))

(assert (=> b!12973 (= lt!6503 #b00000000000000000000000000000000)))

(assert (=> b!12973 (= lt!6506 (bvsge (select (arr!391 (_2!311 lt!6507)) (bvsub jz!59 #b00000000000000000000000000000001)) #b00000000100000000000000000000000))))

(declare-fun b!12974 () Bool)

(declare-fun res!10266 () Bool)

(assert (=> b!12974 (=> (not res!10266) (not e!7125))))

(declare-fun qqInv!0 (array!904) Bool)

(assert (=> b!12974 (= res!10266 (qqInv!0 qq!48))))

(declare-fun b!12975 () Bool)

(declare-fun Unit!1399 () Unit!1395)

(assert (=> b!12975 (= e!7121 (tuple3!223 Unit!1399 (_2!311 lt!6507) lt!6503))))

(declare-fun b!12976 () Bool)

(declare-fun computeModuloWhile!0 ((_ BitVec 32) array!904 array!902 (_ BitVec 32) (_ FloatingPoint 11 53)) tuple4!264)

(assert (=> b!12976 (= e!7123 (computeModuloWhile!0 jz!59 q!93 lt!6508 jz!59 lt!6510))))

(declare-fun b!12967 () Bool)

(declare-fun lt!6511 () tuple4!266)

(declare-fun lt!6504 () (_ BitVec 32))

(declare-fun Unit!1400 () Unit!1395)

(assert (=> b!12967 (= e!7121 (tuple3!223 Unit!1400 (array!903 (store (arr!391 (_3!244 lt!6511)) (bvsub jz!59 #b00000000000000000000000000000001) (ite (= (_4!133 lt!6511) #b00000000000000000000000000000000) (bvsub #b00000001000000000000000000000000 lt!6504) (bvsub #b00000000111111111111111111111111 lt!6504))) (size!391 (_3!244 lt!6511))) (_4!133 lt!6511)))))

(assert (=> b!12967 (= lt!6509 #b00000000000000000000000000000000)))

(declare-fun c!1565 () Bool)

(assert (=> b!12967 (= c!1565 (bvslt lt!6509 (bvsub jz!59 #b00000000000000000000000000000001)))))

(assert (=> b!12967 (= lt!6511 e!7120)))

(assert (=> b!12967 (= lt!6504 (select (arr!391 (_3!244 lt!6511)) (bvsub jz!59 #b00000000000000000000000000000001)))))

(declare-fun res!10260 () Bool)

(assert (=> start!2467 (=> (not res!10260) (not e!7127))))

(assert (=> start!2467 (= res!10260 (and (bvsle #b00000000000000000000000000000010 jz!59) (bvslt jz!59 #b00000000000000000000000000010011)))))

(assert (=> start!2467 e!7127))

(assert (=> start!2467 true))

(declare-fun array_inv!340 (array!902) Bool)

(assert (=> start!2467 (array_inv!340 iq!194)))

(declare-fun array_inv!341 (array!904) Bool)

(assert (=> start!2467 (array_inv!341 qq!48)))

(assert (=> start!2467 (array_inv!341 q!93)))

(assert (= (and start!2467 res!10260) b!12965))

(assert (= (and b!12965 res!10265) b!12970))

(assert (= (and b!12970 c!1564) b!12976))

(assert (= (and b!12970 (not c!1564)) b!12964))

(assert (= (and b!12970 res!10262) b!12973))

(assert (= (and b!12973 c!1563) b!12967))

(assert (= (and b!12973 (not c!1563)) b!12975))

(assert (= (and b!12967 c!1565) b!12972))

(assert (= (and b!12967 (not c!1565)) b!12968))

(assert (= (and b!12973 res!10263) b!12966))

(assert (= (and b!12966 res!10264) b!12971))

(assert (= (and b!12971 res!10261) b!12974))

(assert (= (and b!12974 res!10266) b!12969))

(declare-fun m!20963 () Bool)

(assert (=> b!12965 m!20963))

(declare-fun m!20965 () Bool)

(assert (=> b!12971 m!20965))

(declare-fun m!20967 () Bool)

(assert (=> b!12973 m!20967))

(declare-fun m!20969 () Bool)

(assert (=> b!12973 m!20969))

(declare-fun m!20971 () Bool)

(assert (=> b!12970 m!20971))

(declare-fun m!20973 () Bool)

(assert (=> b!12966 m!20973))

(declare-fun m!20975 () Bool)

(assert (=> b!12976 m!20975))

(declare-fun m!20977 () Bool)

(assert (=> b!12972 m!20977))

(declare-fun m!20979 () Bool)

(assert (=> start!2467 m!20979))

(declare-fun m!20981 () Bool)

(assert (=> start!2467 m!20981))

(declare-fun m!20983 () Bool)

(assert (=> start!2467 m!20983))

(declare-fun m!20985 () Bool)

(assert (=> b!12967 m!20985))

(declare-fun m!20987 () Bool)

(assert (=> b!12967 m!20987))

(declare-fun m!20989 () Bool)

(assert (=> b!12974 m!20989))

(push 1)

(assert (not b!12974))

(assert (not b!12976))

(assert (not start!2467))

(assert (not b!12965))

(assert (not b!12972))

(assert (not b!12966))

(check-sat)

(pop 1)

(push 1)

(check-sat)

(get-model)

(pop 1)

(declare-fun d!6798 () Bool)

(declare-fun res!10269 () Bool)

(declare-fun e!7131 () Bool)

(assert (=> d!6798 (=> (not res!10269) (not e!7131))))

(assert (=> d!6798 (= res!10269 (= (size!391 iq!194) #b00000000000000000000000000010100))))

(assert (=> d!6798 (= (iqInv!0 iq!194) e!7131)))

(declare-fun b!12979 () Bool)

(declare-fun lambda!605 () Int)

(declare-fun all20Int!0 (array!902 Int) Bool)

(assert (=> b!12979 (= e!7131 (all20Int!0 iq!194 lambda!605))))

(assert (= (and d!6798 res!10269) b!12979))

(declare-fun m!20991 () Bool)

(assert (=> b!12979 m!20991))

(assert (=> b!12966 d!6798))

(declare-fun lt!6524 () (_ FloatingPoint 11 53))

(declare-fun lt!6523 () (_ BitVec 32))

(declare-fun b!12992 () Bool)

(declare-fun e!7138 () tuple4!264)

(declare-fun lt!6527 () array!902)

(declare-fun Unit!1401 () Unit!1395)

(assert (=> b!12992 (= e!7138 (tuple4!265 Unit!1401 lt!6527 lt!6523 lt!6524))))

(declare-fun b!12993 () Bool)

(declare-fun e!7140 () Bool)

(assert (=> b!12993 (= e!7140 (bvsgt jz!59 #b00000000000000000000000000000000))))

(declare-fun b!12994 () Bool)

(assert (=> b!12994 (= e!7138 (computeModuloWhile!0 jz!59 q!93 lt!6527 lt!6523 lt!6524))))

(declare-fun b!12995 () Bool)

(declare-fun res!10279 () Bool)

(declare-fun e!7139 () Bool)

(assert (=> b!12995 (=> (not res!10279) (not e!7139))))

(declare-fun lt!6525 () tuple4!264)

(assert (=> b!12995 (= res!10279 (iqInv!0 (_2!311 lt!6525)))))

(declare-fun b!12996 () Bool)

(declare-fun res!10281 () Bool)

(assert (=> b!12996 (=> (not res!10281) (not e!7140))))

(assert (=> b!12996 (= res!10281 (iqInv!0 lt!6508))))

(declare-fun d!6800 () Bool)

(assert (=> d!6800 e!7139))

(declare-fun res!10280 () Bool)

(assert (=> d!6800 (=> (not res!10280) (not e!7139))))

(assert (=> d!6800 (= res!10280 (and true true (bvsle #b00000000000000000000000000000000 (_3!243 lt!6525)) (bvsle (_3!243 lt!6525) jz!59) (fp.leq (fp #b0 #b00000000000 #b0000000000000000000000000000000000000000000000000000) (_4!132 lt!6525)) (fp.leq (_4!132 lt!6525) (fp #b0 #b10000110001 #b0100000000000000000000010011111111111111111111111100))))))

(assert (=> d!6800 (= lt!6525 e!7138)))

(declare-fun c!1568 () Bool)

(assert (=> d!6800 (= c!1568 (bvsgt lt!6523 #b00000000000000000000000000000000))))

(assert (=> d!6800 (= lt!6523 (bvsub jz!59 #b00000000000000000000000000000001))))

(declare-fun lt!6526 () (_ FloatingPoint 11 53))

(assert (=> d!6800 (= lt!6524 (fp.add roundNearestTiesToEven (select (arr!392 q!93) (bvsub jz!59 #b00000000000000000000000000000001)) lt!6526))))

(assert (=> d!6800 (= lt!6527 (array!903 (store (arr!391 lt!6508) (bvsub jz!59 jz!59) (ite (fp.isNaN (fp.sub roundNearestTiesToEven lt!6510 (fp.mul roundNearestTiesToEven (fp #b0 #b10000010111 #b0000000000000000000000000000000000000000000000000000) lt!6526))) #b00000000000000000000000000000000 (ite (fp.gt (fp.sub roundNearestTiesToEven lt!6510 (fp.mul roundNearestTiesToEven (fp #b0 #b10000010111 #b0000000000000000000000000000000000000000000000000000) lt!6526)) ((_ to_fp 11 53) roundTowardZero #b01111111111111111111111111111111)) #b01111111111111111111111111111111 (ite (fp.lt (fp.sub roundNearestTiesToEven lt!6510 (fp.mul roundNearestTiesToEven (fp #b0 #b10000010111 #b0000000000000000000000000000000000000000000000000000) lt!6526)) ((_ to_fp 11 53) roundTowardZero #b10000000000000000000000000000000)) #b10000000000000000000000000000000 ((_ fp.to_sbv 32) roundTowardZero (fp.sub roundNearestTiesToEven lt!6510 (fp.mul roundNearestTiesToEven (fp #b0 #b10000010111 #b0000000000000000000000000000000000000000000000000000) lt!6526))))))) (size!391 lt!6508)))))

(assert (=> d!6800 (= lt!6526 ((_ to_fp 11 53) roundNearestTiesToEven (ite (fp.isNaN (fp.mul roundNearestTiesToEven (fp #b0 #b01111100111 #b0000000000000000000000000000000000000000000000000000) lt!6510)) #b00000000000000000000000000000000 (ite (fp.gt (fp.mul roundNearestTiesToEven (fp #b0 #b01111100111 #b0000000000000000000000000000000000000000000000000000) lt!6510) ((_ to_fp 11 53) roundTowardZero #b01111111111111111111111111111111)) #b01111111111111111111111111111111 (ite (fp.lt (fp.mul roundNearestTiesToEven (fp #b0 #b01111100111 #b0000000000000000000000000000000000000000000000000000) lt!6510) ((_ to_fp 11 53) roundTowardZero #b10000000000000000000000000000000)) #b10000000000000000000000000000000 ((_ fp.to_sbv 32) roundTowardZero (fp.mul roundNearestTiesToEven (fp #b0 #b01111100111 #b0000000000000000000000000000000000000000000000000000) lt!6510)))))))))

(assert (=> d!6800 e!7140))

(declare-fun res!10278 () Bool)

(assert (=> d!6800 (=> (not res!10278) (not e!7140))))

(assert (=> d!6800 (= res!10278 (and (bvsle #b00000000000000000000000000000000 jz!59) (bvsle jz!59 jz!59) (fp.leq (fp #b0 #b00000000000 #b0000000000000000000000000000000000000000000000000000) lt!6510) (fp.leq lt!6510 (fp #b0 #b10000110001 #b0100000000000000000000010011111111111111111111111100))))))

(assert (=> d!6800 (= (computeModuloWhile!0 jz!59 q!93 lt!6508 jz!59 lt!6510) lt!6525)))

(declare-fun b!12997 () Bool)

(assert (=> b!12997 (= e!7139 (bvsle (_3!243 lt!6525) #b00000000000000000000000000000000))))

(assert (= (and d!6800 res!10278) b!12996))

(assert (= (and b!12996 res!10281) b!12993))

(assert (= (and d!6800 c!1568) b!12994))

(assert (= (and d!6800 (not c!1568)) b!12992))

(assert (= (and d!6800 res!10280) b!12995))

(assert (= (and b!12995 res!10279) b!12997))

(declare-fun m!20993 () Bool)

(assert (=> b!12994 m!20993))

(declare-fun m!20995 () Bool)

(assert (=> b!12995 m!20995))

(declare-fun m!20997 () Bool)

(assert (=> b!12996 m!20997))

(declare-fun m!20999 () Bool)

(assert (=> d!6800 m!20999))

(declare-fun m!21001 () Bool)

(assert (=> d!6800 m!21001))

(assert (=> b!12976 d!6800))

(declare-fun d!6802 () Bool)

(declare-fun res!10284 () Bool)

(declare-fun e!7143 () Bool)

(assert (=> d!6802 (=> (not res!10284) (not e!7143))))

(assert (=> d!6802 (= res!10284 (= (size!392 q!93) #b00000000000000000000000000010100))))

(assert (=> d!6802 (= (qInv!0 q!93) e!7143)))

(declare-fun b!13000 () Bool)

(declare-fun lambda!608 () Int)

(declare-fun all20!0 (array!904 Int) Bool)

(assert (=> b!13000 (= e!7143 (all20!0 q!93 lambda!608))))

(assert (= (and d!6802 res!10284) b!13000))

(declare-fun m!21003 () Bool)

(assert (=> b!13000 m!21003))

(assert (=> b!12965 d!6802))

(declare-fun d!6804 () Bool)

(assert (=> d!6804 (= (qqInv!0 qq!48) (and (= (size!392 qq!48) #b00000000000000000000000000010100) (fp.leq (fp #b0 #b00000000000 #b0000000000000000000000000000000000000000000000000000) (select (arr!392 qq!48) #b00000000000000000000000000000000)) (fp.leq (select (arr!392 qq!48) #b00000000000000000000000000000000) (fp #b0 #b01111111101 #b1111111111111111111111000000000000000000000000000000)) (fp.leq (fp #b0 #b00000000000 #b0000000000000000000000000000000000000000000000000000) (select (arr!392 qq!48) #b00000000000000000000000000000001)) (fp.leq (select (arr!392 qq!48) #b00000000000000000000000000000001) (fp #b0 #b01111100110 #b1111111111111111111111100000000000000000000000000000)) (fp.leq (fp #b0 #b00000000000 #b0000000000000000000000000000000000000000000000000000) (select (arr!392 qq!48) #b00000000000000000000000000000010)) (fp.leq (select (arr!392 qq!48) #b00000000000000000000000000000010) (fp #b0 #b01111001110 #b1111111111111111111111100000000000000000000000000000)) (fp.leq (fp #b0 #b00000000000 #b0000000000000000000000000000000000000000000000000000) (select (arr!392 qq!48) #b00000000000000000000000000000011)) (fp.leq (select (arr!392 qq!48) #b00000000000000000000000000000011) (fp #b0 #b01110110110 #b1111111111111111111111100000000000000000000000000000)) (fp.leq (fp #b0 #b00000000000 #b0000000000000000000000000000000000000000000000000000) (select (arr!392 qq!48) #b00000000000000000000000000000100)) (fp.leq (select (arr!392 qq!48) #b00000000000000000000000000000100) (fp #b0 #b01110011110 #b1111111111111111111111100000000000000000000000000000)) (fp.leq (fp #b0 #b00000000000 #b0000000000000000000000000000000000000000000000000000) (select (arr!392 qq!48) #b00000000000000000000000000000101)) (fp.leq (select (arr!392 qq!48) #b00000000000000000000000000000101) (fp #b0 #b01110000110 #b1111111111111111111111100000000000000000000000000000)) (fp.leq (fp #b0 #b00000000000 #b0000000000000000000000000000000000000000000000000000) (select (arr!392 qq!48) #b00000000000000000000000000000110)) (fp.leq (select (arr!392 qq!48) #b00000000000000000000000000000110) (fp #b0 #b01101101110 #b1111111111111111111111100000000000000000000000000000)) (fp.leq (fp #b0 #b00000000000 #b0000000000000000000000000000000000000000000000000000) (select (arr!392 qq!48) #b00000000000000000000000000000111)) (fp.leq (select (arr!392 qq!48) #b00000000000000000000000000000111) (fp #b0 #b01101010110 #b1111111111111111111111100000000000000000000000000000)) (fp.leq (fp #b0 #b00000000000 #b0000000000000000000000000000000000000000000000000000) (select (arr!392 qq!48) #b00000000000000000000000000001000)) (fp.leq (select (arr!392 qq!48) #b00000000000000000000000000001000) (fp #b0 #b01100111110 #b1111111111111111111111100000000000000000000000000000)) (fp.leq (fp #b0 #b00000000000 #b0000000000000000000000000000000000000000000000000000) (select (arr!392 qq!48) #b00000000000000000000000000001001)) (fp.leq (select (arr!392 qq!48) #b00000000000000000000000000001001) (fp #b0 #b01100100110 #b1111111111111111111111100000000000000000000000000000)) (fp.leq (fp #b0 #b00000000000 #b0000000000000000000000000000000000000000000000000000) (select (arr!392 qq!48) #b00000000000000000000000000001010)) (fp.leq (select (arr!392 qq!48) #b00000000000000000000000000001010) (fp #b0 #b01100001110 #b1111111111111111111111100000000000000000000000000000)) (fp.leq (fp #b0 #b00000000000 #b0000000000000000000000000000000000000000000000000000) (select (arr!392 qq!48) #b00000000000000000000000000001011)) (fp.leq (select (arr!392 qq!48) #b00000000000000000000000000001011) (fp #b0 #b01011110110 #b1111111111111111111111100000000000000000000000000000)) (fp.leq (fp #b0 #b00000000000 #b0000000000000000000000000000000000000000000000000000) (select (arr!392 qq!48) #b00000000000000000000000000001100)) (fp.leq (select (arr!392 qq!48) #b00000000000000000000000000001100) (fp #b0 #b01011011110 #b1111111111111111111111100000000000000000000000000000)) (fp.leq (fp #b0 #b00000000000 #b0000000000000000000000000000000000000000000000000000) (select (arr!392 qq!48) #b00000000000000000000000000001101)) (fp.leq (select (arr!392 qq!48) #b00000000000000000000000000001101) (fp #b0 #b01011000110 #b1111111111111111111111100000000000000000000000000000)) (fp.leq (fp #b0 #b00000000000 #b0000000000000000000000000000000000000000000000000000) (select (arr!392 qq!48) #b00000000000000000000000000001110)) (fp.leq (select (arr!392 qq!48) #b00000000000000000000000000001110) (fp #b0 #b01010101110 #b1111111111111111111111100000000000000000000000000000)) (fp.leq (fp #b0 #b00000000000 #b0000000000000000000000000000000000000000000000000000) (select (arr!392 qq!48) #b00000000000000000000000000001111)) (fp.leq (select (arr!392 qq!48) #b00000000000000000000000000001111) (fp #b0 #b01010010110 #b1111111111111111111111100000000000000000000000000000)) (fp.leq (fp #b0 #b00000000000 #b0000000000000000000000000000000000000000000000000000) (select (arr!392 qq!48) #b00000000000000000000000000010000)) (fp.leq (select (arr!392 qq!48) #b00000000000000000000000000010000) (fp #b0 #b01001111110 #b1111111111111111111111100000000000000000000000000000)) (fp.leq (fp #b0 #b00000000000 #b0000000000000000000000000000000000000000000000000000) (select (arr!392 qq!48) #b00000000000000000000000000010001)) (fp.leq (select (arr!392 qq!48) #b00000000000000000000000000010001) (fp #b0 #b01001100110 #b1111111111111111111111100000000000000000000000000000)) (fp.leq (fp #b0 #b00000000000 #b0000000000000000000000000000000000000000000000000000) (select (arr!392 qq!48) #b00000000000000000000000000010010)) (fp.leq (select (arr!392 qq!48) #b00000000000000000000000000010010) (fp #b0 #b01001001110 #b1111111111111111111111100000000000000000000000000000)) (fp.leq (fp #b0 #b00000000000 #b0000000000000000000000000000000000000000000000000000) (select (arr!392 qq!48) #b00000000000000000000000000010011)) (fp.leq (select (arr!392 qq!48) #b00000000000000000000000000010011) (fp #b0 #b01000110110 #b1111111111111111111111100000000000000000000000000000))))))

(declare-fun bs!2827 () Bool)

(assert (= bs!2827 d!6804))

(declare-fun m!21005 () Bool)

(assert (=> bs!2827 m!21005))

(declare-fun m!21007 () Bool)

(assert (=> bs!2827 m!21007))

(declare-fun m!21009 () Bool)

(assert (=> bs!2827 m!21009))

(declare-fun m!21011 () Bool)

(assert (=> bs!2827 m!21011))

(declare-fun m!21013 () Bool)

(assert (=> bs!2827 m!21013))

(declare-fun m!21015 () Bool)

(assert (=> bs!2827 m!21015))

(declare-fun m!21017 () Bool)

(assert (=> bs!2827 m!21017))

(declare-fun m!21019 () Bool)

(assert (=> bs!2827 m!21019))

(declare-fun m!21021 () Bool)

(assert (=> bs!2827 m!21021))

(declare-fun m!21023 () Bool)

(assert (=> bs!2827 m!21023))

(declare-fun m!21025 () Bool)

(assert (=> bs!2827 m!21025))

(declare-fun m!21027 () Bool)

(assert (=> bs!2827 m!21027))

(declare-fun m!21029 () Bool)

(assert (=> bs!2827 m!21029))

(declare-fun m!21031 () Bool)

(assert (=> bs!2827 m!21031))

(declare-fun m!21033 () Bool)

(assert (=> bs!2827 m!21033))

(declare-fun m!21035 () Bool)

(assert (=> bs!2827 m!21035))

(declare-fun m!21037 () Bool)

(assert (=> bs!2827 m!21037))

(declare-fun m!21039 () Bool)

(assert (=> bs!2827 m!21039))

(declare-fun m!21041 () Bool)

(assert (=> bs!2827 m!21041))

(declare-fun m!21043 () Bool)

(assert (=> bs!2827 m!21043))

(assert (=> b!12974 d!6804))

(declare-fun d!6806 () Bool)

(assert (=> d!6806 (= (array_inv!340 iq!194) (bvsge (size!391 iq!194) #b00000000000000000000000000000000))))

(assert (=> start!2467 d!6806))

(declare-fun d!6808 () Bool)

(assert (=> d!6808 (= (array_inv!341 qq!48) (bvsge (size!392 qq!48) #b00000000000000000000000000000000))))

(assert (=> start!2467 d!6808))

(declare-fun d!6810 () Bool)

(assert (=> d!6810 (= (array_inv!341 q!93) (bvsge (size!392 q!93) #b00000000000000000000000000000000))))

(assert (=> start!2467 d!6810))

(declare-fun lt!6553 () (_ FloatingPoint 11 53))

(declare-fun lt!6547 () array!902)

(declare-fun b!13021 () Bool)

(declare-fun e!7152 () tuple4!264)

(assert (=> b!13021 (= e!7152 (computeModuloWhile!0 jz!59 q!93 lt!6547 jz!59 lt!6553))))

(declare-fun lt!6552 () array!902)

(declare-fun lt!6546 () (_ BitVec 32))

(declare-fun b!13022 () Bool)

(declare-fun e!7153 () tuple4!266)

(declare-fun lt!6550 () (_ BitVec 32))

(declare-fun Unit!1402 () Unit!1395)

(assert (=> b!13022 (= e!7153 (tuple4!267 Unit!1402 lt!6550 lt!6552 lt!6546))))

(declare-fun b!13023 () Bool)

(declare-fun res!10302 () Bool)

(declare-fun e!7155 () Bool)

(assert (=> b!13023 (=> (not res!10302) (not e!7155))))

(declare-fun lt!6551 () tuple4!266)

(assert (=> b!13023 (= res!10302 (or (= (_4!133 lt!6551) #b00000000000000000000000000000000) (= (_4!133 lt!6551) #b00000000000000000000000000000001)))))

(declare-fun b!13024 () Bool)

(declare-fun Unit!1403 () Unit!1395)

(assert (=> b!13024 (= e!7152 (tuple4!265 Unit!1403 lt!6547 jz!59 lt!6553))))

(declare-fun b!13025 () Bool)

(declare-fun res!10298 () Bool)

(assert (=> b!13025 (=> (not res!10298) (not e!7155))))

(assert (=> b!13025 (= res!10298 (iqInv!0 (_3!244 lt!6551)))))

(declare-fun b!13026 () Bool)

(declare-fun e!7154 () Bool)

(assert (=> b!13026 (= e!7154 (and (bvsge (select (arr!391 (_2!311 lt!6507)) (bvsub jz!59 #b00000000000000000000000000000001)) #b00000000100000000000000000000000) (or (= lt!6503 #b00000000000000000000000000000000) (= lt!6503 #b00000000000000000000000000000001)) (bvslt lt!6509 (bvsub jz!59 #b00000000000000000000000000000001))))))

(declare-fun d!6812 () Bool)

(assert (=> d!6812 e!7155))

(declare-fun res!10297 () Bool)

(assert (=> d!6812 (=> (not res!10297) (not e!7155))))

(assert (=> d!6812 (= res!10297 (and (or (bvsgt #b00000000000000000000000000000000 (_2!312 lt!6551)) (= (bvand jz!59 #b10000000000000000000000000000000) #b00000000000000000000000000000000) (= (bvand jz!59 #b10000000000000000000000000000000) (bvand (bvsub jz!59 #b00000000000000000000000000000001) #b10000000000000000000000000000000))) (bvsle #b00000000000000000000000000000000 (_2!312 lt!6551)) (bvsle (_2!312 lt!6551) (bvsub jz!59 #b00000000000000000000000000000001))))))

(assert (=> d!6812 (= lt!6551 e!7153)))

(declare-fun c!1574 () Bool)

(assert (=> d!6812 (= c!1574 (bvslt lt!6550 (bvsub jz!59 #b00000000000000000000000000000001)))))

(assert (=> d!6812 (= lt!6550 (bvadd lt!6509 #b00000000000000000000000000000001))))

(declare-fun lt!6554 () (_ BitVec 32))

(assert (=> d!6812 (= lt!6546 (ite (and (= lt!6503 #b00000000000000000000000000000000) (not (= lt!6554 #b00000000000000000000000000000000))) #b00000000000000000000000000000001 lt!6503))))

(assert (=> d!6812 (= lt!6552 (array!903 (store (arr!391 (_2!311 lt!6507)) lt!6509 (ite (= lt!6503 #b00000000000000000000000000000000) (ite (not (= lt!6554 #b00000000000000000000000000000000)) (bvsub #b00000001000000000000000000000000 lt!6554) #b00000000000000000000000000000000) (bvsub #b00000000111111111111111111111111 lt!6554))) (size!391 (_2!311 lt!6507))))))

(assert (=> d!6812 (= lt!6554 (select (arr!391 (_2!311 lt!6507)) lt!6509))))

(assert (=> d!6812 e!7154))

(declare-fun res!10299 () Bool)

(assert (=> d!6812 (=> (not res!10299) (not e!7154))))

(assert (=> d!6812 (= res!10299 (and (bvsle #b00000000000000000000000000000000 lt!6509) (bvsle lt!6509 (bvsub jz!59 #b00000000000000000000000000000001))))))

(declare-fun lt!6548 () tuple4!264)

(assert (=> d!6812 (= lt!6548 e!7152)))

(declare-fun c!1573 () Bool)

(assert (=> d!6812 (= c!1573 (bvsgt jz!59 #b00000000000000000000000000000000))))

(assert (=> d!6812 (= lt!6553 (select (arr!392 q!93) jz!59))))

(assert (=> d!6812 (= lt!6547 (array!903 ((as const (Array (_ BitVec 32) (_ BitVec 32))) #b00000000000000000000000000000000) #b00000000000000000000000000010100))))

(assert (=> d!6812 (= (computeModuloWhile!3 jz!59 q!93 lt!6509 (_2!311 lt!6507) lt!6503) lt!6551)))

(declare-fun b!13027 () Bool)

(declare-fun res!10300 () Bool)

(assert (=> b!13027 (=> (not res!10300) (not e!7155))))

(declare-fun lt!6549 () (_ BitVec 32))

(assert (=> b!13027 (= res!10300 (bvsge (select (arr!391 (_3!244 lt!6551)) lt!6549) #b00000000100000000000000000000000))))

(assert (=> b!13027 (and (bvsge lt!6549 #b00000000000000000000000000000000) (bvslt lt!6549 (size!391 (_3!244 lt!6551))))))

(assert (=> b!13027 (= lt!6549 (bvsub jz!59 #b00000000000000000000000000000001))))

(assert (=> b!13027 (or (= (bvand jz!59 #b10000000000000000000000000000000) #b00000000000000000000000000000000) (= (bvand jz!59 #b10000000000000000000000000000000) (bvand (bvsub jz!59 #b00000000000000000000000000000001) #b10000000000000000000000000000000)))))

(declare-fun b!13028 () Bool)

(declare-fun res!10301 () Bool)

(assert (=> b!13028 (=> (not res!10301) (not e!7154))))

(assert (=> b!13028 (= res!10301 (iqInv!0 (_2!311 lt!6507)))))

(declare-fun b!13029 () Bool)

(assert (=> b!13029 (= e!7153 (computeModuloWhile!3 jz!59 q!93 lt!6550 lt!6552 lt!6546))))

(declare-fun b!13030 () Bool)

(assert (=> b!13030 (= e!7155 (bvsge (_2!312 lt!6551) (bvsub jz!59 #b00000000000000000000000000000001)))))

(assert (=> b!13030 (or (= (bvand jz!59 #b10000000000000000000000000000000) #b00000000000000000000000000000000) (= (bvand jz!59 #b10000000000000000000000000000000) (bvand (bvsub jz!59 #b00000000000000000000000000000001) #b10000000000000000000000000000000)))))

(assert (= (and d!6812 c!1573) b!13021))

(assert (= (and d!6812 (not c!1573)) b!13024))

(assert (= (and d!6812 res!10299) b!13028))

(assert (= (and b!13028 res!10301) b!13026))

(assert (= (and d!6812 c!1574) b!13029))

(assert (= (and d!6812 (not c!1574)) b!13022))

(assert (= (and d!6812 res!10297) b!13025))

(assert (= (and b!13025 res!10298) b!13027))

(assert (= (and b!13027 res!10300) b!13023))

(assert (= (and b!13023 res!10302) b!13030))

(declare-fun m!21045 () Bool)

(assert (=> b!13029 m!21045))

(declare-fun m!21047 () Bool)

(assert (=> b!13025 m!21047))

(declare-fun m!21049 () Bool)

(assert (=> b!13027 m!21049))

(declare-fun m!21051 () Bool)

(assert (=> b!13028 m!21051))

(assert (=> b!13026 m!20969))

(declare-fun m!21053 () Bool)

(assert (=> b!13021 m!21053))

(declare-fun m!21055 () Bool)

(assert (=> d!6812 m!21055))

(declare-fun m!21057 () Bool)

(assert (=> d!6812 m!21057))

(assert (=> d!6812 m!20971))

(assert (=> b!12972 d!6812))

(push 1)

(assert (not b!13021))

(assert (not b!12994))

(assert (not b!13029))

(assert (not b!12979))

(assert (not b!13028))

(assert (not b!12996))

(assert (not b!13000))

(assert (not b!13025))

(assert (not b!12995))

(check-sat)

(pop 1)

(push 1)

(check-sat)

(pop 1)

